p edge 50 368
e 1 3
e 1 6
e 1 7
e 1 16
e 1 22
e 1 35
e 1 40
e 1 44
e 2 3
e 2 12
e 2 14
e 2 16
e 2 17
e 2 19
e 2 21
e 2 24
e 2 26
e 2 28
e 2 29
e 2 33
e 2 34
e 2 39
e 2 44
e 2 45
e 2 46
e 3 16
e 3 22
e 3 25
e 3 26
e 3 31
e 3 33
e 3 34
e 3 35
e 3 37
e 3 43
e 3 48
e 3 49
e 4 7
e 4 9
e 4 16
e 4 18
e 4 25
e 4 30
e 4 33
e 4 48
e 4 49
e 5 12
e 5 13
e 5 16
e 5 20
e 5 22
e 5 23
e 5 24
e 5 27
e 5 30
e 5 31
e 5 33
e 5 38
e 5 43
e 6 7
e 6 10
e 6 12
e 6 14
e 6 27
e 6 29
e 6 38
e 7 10
e 7 11
e 7 12
e 7 13
e 7 14
e 7 19
e 7 23
e 7 24
e 7 29
e 7 33
e 7 36
e 7 37
e 7 38
e 7 39
e 7 42
e 7 50
e 8 13
e 8 19
e 8 20
e 8 21
e 8 25
e 8 26
e 8 31
e 8 33
e 8 45
e 8 48
e 9 12
e 9 17
e 9 20
e 9 25
e 9 35
e 9 37
e 9 40
e 9 41
e 9 48
e 9 49
e 9 50
e 10 12
e 10 13
e 10 15
e 10 17
e 10 19
e 10 22
e 10 32
e 10 36
e 10 37
e 10 42
e 10 46
e 10 48
e 11 18
e 11 24
e 11 26
e 11 31
e 11 35
e 11 37
e 11 39
e 11 41
e 12 14
e 12 21
e 12 24
e 12 26
e 12 27
e 12 30
e 12 38
e 12 39
e 12 45
e 13 22
e 13 25
e 13 30
e 13 41
e 13 48
e 13 49
e 13 50
e 14 18
e 14 19
e 14 21
e 14 26
e 14 27
e 14 30
e 14 31
e 14 33
e 14 40
e 14 41
e 14 44
e 14 47
e 14 49
e 15 17
e 15 19
e 15 24
e 15 25
e 15 32
e 15 33
e 15 38
e 15 39
e 15 43
e 15 45
e 15 50
e 16 17
e 16 19
e 16 21
e 16 24
e 16 25
e 16 26
e 16 36
e 16 37
e 16 41
e 16 47
e 17 23
e 17 25
e 17 26
e 17 27
e 17 28
e 17 30
e 17 32
e 17 36
e 17 40
e 17 41
e 17 44
e 17 48
e 18 19
e 18 24
e 18 27
e 18 30
e 18 34
e 18 35
e 18 36
e 18 37
e 18 40
e 18 44
e 18 46
e 18 50
e 19 22
e 19 23
e 19 24
e 19 26
e 19 28
e 19 29
e 19 31
e 19 33
e 19 34
e 19 35
e 19 38
e 19 40
e 19 41
e 19 42
e 19 45
e 19 46
e 19 47
e 19 48
e 19 49
e 20 22
e 20 24
e 20 29
e 20 30
e 20 34
e 20 35
e 20 36
e 20 38
e 20 42
e 20 45
e 20 48
e 21 24
e 21 28
e 21 34
e 21 38
e 21 45
e 21 46
e 22 23
e 22 27
e 22 30
e 22 37
e 22 40
e 22 44
e 22 48
e 23 24
e 23 25
e 23 29
e 23 33
e 23 36
e 23 37
e 23 38
e 23 41
e 23 44
e 24 28
e 24 29
e 24 31
e 24 32
e 24 35
e 24 38
e 24 39
e 24 40
e 24 46
e 24 49
e 24 50
e 25 31
e 25 42
e 25 43
e 25 44
e 26 33
e 26 36
e 26 42
e 26 47
e 27 28
e 27 30
e 27 38
e 27 40
e 27 43
e 28 31
e 28 35
e 28 36
e 28 38
e 28 41
e 28 42
e 28 45
e 28 48
e 28 50
e 29 35
e 29 39
e 29 40
e 29 43
e 29 45
e 29 50
e 30 31
e 30 32
e 30 34
e 30 35
e 30 42
e 30 44
e 30 46
e 30 48
e 30 49
e 30 50
e 31 33
e 31 35
e 31 36
e 31 37
e 31 39
e 31 49
e 32 35
e 32 37
e 32 38
e 32 43
e 32 44
e 32 49
e 33 34
e 33 36
e 33 41
e 33 43
e 33 44
e 33 47
e 33 50
e 34 40
e 34 43
e 34 44
e 34 47
e 34 48
e 34 49
e 35 37
e 35 39
e 35 42
e 35 46
e 35 50
e 36 37
e 36 40
e 36 44
e 36 49
e 36 50
e 37 41
e 37 45
e 37 48
e 37 49
e 38 40
e 38 47
e 38 49
e 39 50
e 40 41
e 40 43
e 40 45
e 40 47
e 40 48
e 40 49
e 41 42
e 41 43
e 41 44
e 42 43
e 42 47
e 42 49
e 43 45
e 43 46
e 43 47
e 43 49
e 43 50
e 44 46
e 44 47
e 44 48
e 44 50
e 45 47
e 45 49
e 46 48
e 47 50
e 48 49
e 49 50
